50
12479

243 230
639 481
727 813
846 950
902 20
825 230
652 544
988 588
266 781
733 873
673 243
271 29
59 649
404 957
394 470
933 922
212 72
396 783
418 256
183 24
643 285
613 231
188 472
169 862
848 176
33 978
57 536
114 711
790 850
920 807
13 33
313 873
51 564
329 356
459 432
452 790
607 684
456 632
273 818
579 938
837 609
46 786
13 685
800 961
514 758
648 39
180 529
223 628
179 636
768 464
